c File: instances/16_0.35_2.col
c
c Description: Random graph of size 16 vertices and P(0.35) of edges between any two vertices.
p col 16 120
e 1 2
e 1 3
e 1 4
e 1 15
e 1 16
e 2 13
e 2 15
e 3 4
e 3 10
e 3 15
e 4 6
e 4 13
e 4 14
e 5 10
e 5 11
e 5 12
e 5 14
e 5 16
e 6 9
e 6 13
e 6 15
e 6 16
e 7 8
e 7 9
e 7 12
e 7 13
e 7 14
e 7 15
e 8 10
e 8 11
e 8 13
e 8 15
e 10 11
e 10 15
e 11 14
e 11 16
e 12 13
e 12 15
e 13 16
e 14 15